celar_50_7_10_5_0.800000_4 100 52 270 16001
40 51 48 52 45 52 41 44 41 51 50 42 49 42 41 40 46 47 41 51 47 41 51 46 43 40 48 48 42 46 49 45 42 43 43 46 40 45 41 49 42 41 48 44 48 51 41 43 43 42 40 50 42 41 52 52 52 44 48 44 50 50 41 40 50 45 51 45 48 52 52 42 47 44 40 41 51 48 47 47 52 50 50 40 41 47 50 44 51 42 44 52 45 51 49 41 49 40 50 47
2 0 1 16001 45
0 22 0
1 23 0
2 26 0
3 27 0
4 29 0
5 30 0
6 31 0
7 32 0
8 34 0
9 36 0
10 37 0
11 40 0
12 41 0
13 42 0
14 43 0
15 0 0
15 45 0
16 1 0
16 46 0
17 3 0
17 48 0
18 4 0
18 49 0
19 5 0
19 50 0
20 6 0
21 7 0
22 8 0
23 10 0
24 11 0
25 12 0
26 13 0
27 14 0
28 15 0
29 16 0
30 17 0
31 18 0
32 19 0
33 20 0
34 21 0
35 22 0
36 23 0
37 24 0
38 25 0
39 27 0
2 2 3 16001 54
0 23 0
1 24 0
2 25 0
3 26 0
4 27 0
5 28 0
6 29 0
7 30 0
8 32 0
9 33 0
10 34 0
11 35 0
12 36 0
13 38 0
14 39 0
15 40 0
16 41 0
17 43 0
18 44 0
19 45 0
20 0 0
20 46 0
21 1 0
21 47 0
22 2 0
22 48 0
23 3 0
23 49 0
24 4 0
24 50 0
25 5 0
25 51 0
26 6 0
27 7 0
28 8 0
29 9 0
30 10 0
31 12 0
32 13 0
33 14 0
34 15 0
35 16 0
36 17 0
37 18 0
38 19 0
39 20 0
40 21 0
41 22 0
42 23 0
43 24 0
44 25 0
45 26 0
46 27 0
47 28 0
2 4 5 16001 49
0 23 0
1 24 0
2 25 0
3 26 0
4 27 0
5 28 0
6 29 0
7 30 0
8 31 0
9 33 0
10 34 0
11 35 0
12 36 0
13 37 0
14 38 0
15 39 0
16 40 0
17 41 0
18 42 0
19 43 0
20 44 0
21 45 0
22 0 0
22 46 0
23 2 0
23 48 0
24 3 0
24 49 0
25 5 0
25 51 0
26 6 0
27 7 0
28 8 0
29 9 0
30 10 0
31 11 0
32 12 0
33 13 0
34 16 0
35 17 0
36 18 0
37 19 0
38 22 0
39 23 0
40 24 0
41 25 0
42 26 0
43 27 0
44 28 0
2 6 7 16001 39
0 20 0
1 21 0
2 22 0
3 23 0
4 24 0
5 25 0
6 27 0
8 29 0
9 30 0
10 31 0
11 32 0
13 33 0
14 34 0
16 35 0
17 36 0
18 37 0
19 0 0
19 40 0
20 1 0
20 41 0
21 2 0
21 42 0
22 5 0
23 6 0
24 7 0
25 8 0
26 9 0
28 10 0
29 11 0
31 12 0
32 13 0
33 14 0
34 17 0
35 18 0
36 19 0
37 20 0
38 21 0
39 22 0
40 23 0
2 8 9 16001 46
0 23 0
1 24 0
2 25 0
3 26 0
4 27 0
5 28 0
6 30 0
7 31 0
8 32 0
9 33 0
10 34 0
11 36 0
12 37 0
13 38 0
14 39 0
15 40 0
16 41 0
17 42 0
18 44 0
19 0 0
19 45 0
20 1 0
20 46 0
21 2 0
21 47 0
22 3 0
22 48 0
23 4 0
23 49 0
24 5 0
24 50 0
25 6 0
26 9 0
27 11 0
28 12 0
29 13 0
30 14 0
31 16 0
32 17 0
33 19 0
35 20 0
36 21 0
37 22 0
38 23 0
39 24 0
40 27 0
2 10 11 16001 47
1 18 0
2 19 0
3 20 0
4 21 0
5 22 0
6 23 0
7 24 0
11 25 0
12 26 0
13 27 0
14 28 0
15 29 0
16 30 0
17 31 0
18 32 0
19 33 0
20 34 0
21 35 0
22 0 0
22 36 0
23 1 0
23 37 0
24 38 0
25 2 0
25 39 0
26 40 0
27 3 0
27 41 0
28 4 0
30 5 0
31 6 0
32 7 0
33 8 0
34 9 0
35 10 0
36 11 0
37 12 0
39 13 0
40 14 0
41 15 0
43 16 0
44 17 0
45 18 0
46 19 0
47 20 0
48 21 0
49 22 0
2 12 13 16001 45
0 17 0
1 18 0
2 19 0
3 20 0
4 21 0
5 22 0
6 23 0
7 24 0
8 25 0
9 26 0
10 27 0
11 28 0
12 29 0
13 30 0
14 31 0
16 32 0
17 33 0
18 34 0
20 35 0
21 36 0
22 37 0
24 0 0
24 38 0
25 1 0
25 39 0
26 2 0
27 3 0
27 40 0
28 41 0
29 4 0
30 5 0
32 6 0
33 7 0
34 8 0
35 9 0
36 10 0
37 11 0
38 13 0
39 14 0
40 15 0
41 16 0
45 18 0
46 19 0
47 20 0
48 21 0
2 14 15 16001 35
1 19 0
2 20 0
3 21 0
4 22 0
7 23 0
8 25 0
9 26 0
10 28 0
11 29 0
12 30 0
13 31 0
14 32 0
15 33 0
16 35 0
17 36 0
18 1 0
19 2 0
19 37 0
20 5 0
20 39 0
21 6 0
23 7 0
25 8 0
26 9 0
27 10 0
28 12 0
29 13 0
30 14 0
31 15 0
32 16 0
33 17 0
36 19 0
38 20 0
39 21 0
40 22 0
2 16 17 16001 46
0 19 0
1 20 0
2 21 0
3 22 0
4 23 0
5 24 0
6 25 0
7 26 0
8 27 0
9 28 0
10 29 0
11 30 0
12 31 0
13 32 0
14 33 0
15 34 0
16 35 0
17 36 0
18 37 0
19 38 0
21 40 0
22 1 0
22 42 0
23 2 0
23 44 0
24 3 0
24 45 0
25 4 0
25 46 0
26 6 0
27 7 0
28 8 0
30 9 0
31 10 0
32 11 0
33 12 0
35 15 0
36 16 0
37 17 0
39 18 0
40 19 0
41 20 0
42 21 0
43 22 0
44 23 0
45 24 0
2 18 19 16001 45
0 22 0
1 25 0
2 26 0
3 27 0
4 28 0
5 29 0
6 30 0
7 31 0
8 32 0
9 34 0
10 35 0
11 36 0
12 37 0
13 38 0
14 39 0
15 40 0
16 41 0
17 42 0
18 44 0
19 0 0
19 45 0
20 2 0
20 47 0
21 4 0
21 49 0
22 5 0
22 50 0
23 6 0
24 7 0
25 8 0
26 9 0
27 10 0
28 11 0
29 13 0
30 15 0
31 17 0
32 18 0
33 19 0
34 20 0
35 21 0
36 22 0
37 23 0
38 24 0
39 25 0
40 26 0
2 20 21 16001 41
0 21 0
3 22 0
4 23 0
5 24 0
6 25 0
8 26 0
9 27 0
10 28 0
12 29 0
13 30 0
14 31 0
16 32 0
18 34 0
22 0 0
22 35 0
23 1 0
23 36 0
24 2 0
24 37 0
25 3 0
25 38 0
26 4 0
26 39 0
27 5 0
27 40 0
29 6 0
30 7 0
31 8 0
32 9 0
34 10 0
35 13 0
36 14 0
37 15 0
38 16 0
39 17 0
40 18 0
41 19 0
42 20 0
43 21 0
45 22 0
46 24 0
2 22 23 16001 50
0 21 0
1 22 0
2 23 0
4 24 0
5 25 0
6 26 0
7 27 0
8 28 0
9 29 0
10 30 0
11 31 0
12 33 0
13 34 0
15 35 0
16 36 0
17 37 0
18 38 0
19 39 0
20 40 0
22 0 0
22 41 0
23 1 0
23 42 0
24 2 0
24 43 0
25 3 0
26 4 0
26 44 0
27 5 0
27 45 0
28 6 0
29 7 0
30 8 0
32 9 0
33 10 0
34 11 0
35 12 0
36 13 0
38 14 0
39 15 0
40 16 0
41 17 0
42 18 0
43 19 0
44 20 0
45 21 0
46 22 0
47 23 0
49 24 0
50 25 0
2 24 25 16001 35
0 16 0
1 17 0
2 18 0
4 19 0
5 21 0
6 22 0
7 23 0
8 24 0
9 26 0
10 27 0
11 28 0
12 29 0
13 30 0
17 32 0
19 33 0
20 0 0
20 34 0
21 1 0
21 35 0
22 36 0
23 3 0
23 39 0
24 4 0
25 5 0
26 6 0
28 7 0
29 10 0
32 11 0
33 12 0
34 13 0
35 15 0
38 17 0
39 18 0
41 19 0
42 20 0
2 26 27 16001 49
0 20 0
1 22 0
2 23 0
3 24 0
4 25 0
5 26 0
6 27 0
7 28 0
8 29 0
9 30 0
10 31 0
11 32 0
12 33 0
13 34 0
14 35 0
15 36 0
16 37 0
17 38 0
18 39 0
19 40 0
20 41 0
21 42 0
23 0 0
23 43 0
24 1 0
24 44 0
25 2 0
25 45 0
26 4 0
26 47 0
28 5 0
29 6 0
30 7 0
31 8 0
32 9 0
33 10 0
34 11 0
35 13 0
37 14 0
38 15 0
39 16 0
40 17 0
41 18 0
42 19 0
43 20 0
44 21 0
45 22 0
46 24 0
47 25 0
2 28 29 16001 44
0 20 0
1 21 0
2 22 0
3 23 0
4 24 0
5 25 0
6 27 0
7 28 0
8 29 0
9 30 0
10 31 0
11 33 0
12 36 0
13 38 0
14 39 0
15 40 0
16 41 0
17 0 0
18 1 0
18 42 0
19 43 0
20 2 0
20 44 0
21 3 0
21 45 0
22 4 0
23 5 0
24 6 0
25 7 0
26 8 0
28 10 0
29 11 0
30 12 0
31 13 0
32 14 0
33 15 0
34 16 0
35 17 0
36 18 0
37 20 0
38 21 0
39 22 0
40 24 0
41 25 0
2 30 31 16001 48
0 21 0
1 22 0
2 23 0
3 24 0
5 25 0
6 26 0
8 27 0
9 28 0
10 29 0
11 30 0
12 31 0
13 32 0
14 33 0
15 34 0
16 35 0
17 36 0
18 37 0
19 38 0
20 39 0
21 40 0
22 41 0
23 0 0
23 42 0
24 1 0
25 2 0
26 3 0
27 4 0
27 43 0
28 5 0
28 44 0
29 6 0
30 7 0
31 8 0
33 9 0
34 10 0
35 11 0
36 12 0
37 13 0
38 14 0
39 15 0
40 16 0
41 17 0
42 18 0
43 19 0
44 20 0
45 21 0
46 24 0
48 25 0
2 32 33 16001 39
0 17 0
2 20 0
3 21 0
4 22 0
5 24 0
6 25 0
7 26 0
8 27 0
9 28 0
10 29 0
11 30 0
13 32 0
14 33 0
15 34 0
16 36 0
17 0 0
17 37 0
18 1 0
18 38 0
19 2 0
19 39 0
20 3 0
20 40 0
21 4 0
21 42 0
24 6 0
26 7 0
27 8 0
28 9 0
30 10 0
32 11 0
33 12 0
34 13 0
35 14 0
36 15 0
37 16 0
38 17 0
40 19 0
41 20 0
2 34 35 16001 43
0 18 0
1 19 0
2 21 0
3 22 0
4 23 0
5 24 0
6 25 0
7 26 0
8 27 0
9 28 0
10 29 0
11 30 0
12 31 0
13 32 0
14 33 0
15 35 0
16 36 0
17 38 0
18 39 0
19 0 0
19 40 0
20 1 0
20 41 0
21 2 0
21 42 0
22 3 0
22 43 0
23 44 0
24 5 0
25 6 0
26 7 0
28 8 0
30 10 0
31 11 0
32 12 0
33 13 0
35 14 0
36 17 0
38 18 0
39 19 0
40 20 0
41 21 0
42 22 0
2 36 37 16001 37
0 19 0
1 21 0
2 22 0
3 23 0
5 24 0
6 25 0
7 27 0
8 28 0
9 29 0
10 30 0
11 31 0
12 33 0
13 36 0
15 39 0
16 41 0
17 42 0
18 1 0
18 43 0
19 2 0
19 44 0
20 3 0
21 5 0
22 6 0
23 7 0
24 8 0
25 9 0
26 10 0
28 11 0
29 12 0
30 14 0
32 15 0
33 16 0
34 17 0
35 18 0
36 19 0
37 22 0
38 23 0
2 38 39 16001 44
0 23 0
1 26 0
2 27 0
4 28 0
5 29 0
6 30 0
7 31 0
8 32 0
9 35 0
10 36 0
11 37 0
12 38 0
13 39 0
15 40 0
16 41 0
17 0 0
17 43 0
18 1 0
18 44 0
19 2 0
19 45 0
20 4 0
20 47 0
21 5 0
21 48 0
22 6 0
23 7 0
24 8 0
25 9 0
26 10 0
27 11 0
28 12 0
29 13 0
30 14 0
31 15 0
32 16 0
33 19 0
34 20 0
35 21 0
36 22 0
37 24 0
38 25 0
39 26 0
40 27 0
2 40 41 16001 38
0 17 0
1 18 0
2 19 0
3 20 0
4 21 0
5 22 0
6 23 0
7 24 0
9 25 0
10 26 0
11 27 0
12 28 0
13 29 0
14 31 0
15 32 0
16 33 0
17 34 0
19 35 0
20 0 0
21 1 0
21 36 0
22 38 0
23 3 0
23 39 0
24 4 0
24 40 0
25 5 0
27 7 0
28 8 0
30 9 0
32 10 0
33 11 0
35 12 0
36 13 0
37 14 0
39 17 0
40 19 0
41 20 0
2 42 43 16001 45
0 18 0
1 19 0
2 20 0
3 21 0
4 22 0
5 23 0
6 24 0
7 25 0
8 26 0
10 27 0
11 28 0
12 29 0
13 30 0
14 31 0
15 32 0
17 34 0
19 35 0
20 36 0
21 37 0
22 38 0
23 1 0
23 40 0
24 2 0
24 41 0
25 3 0
25 42 0
26 4 0
26 43 0
27 5 0
28 7 0
30 8 0
31 9 0
35 11 0
36 12 0
37 13 0
38 14 0
39 15 0
40 16 0
41 17 0
42 18 0
43 19 0
44 20 0
45 21 0
46 22 0
47 23 0
2 44 45 16001 54
0 23 0
1 25 0
2 26 0
3 27 0
4 28 0
5 29 0
6 30 0
7 31 0
8 32 0
9 33 0
10 34 0
11 35 0
12 37 0
13 38 0
14 39 0
15 40 0
16 42 0
17 43 0
18 44 0
19 0 0
19 45 0
20 1 0
20 46 0
21 2 0
21 47 0
22 3 0
22 48 0
23 4 0
23 49 0
24 5 0
24 50 0
25 6 0
26 7 0
27 8 0
28 9 0
29 10 0
30 11 0
31 12 0
32 13 0
33 14 0
34 15 0
35 16 0
36 17 0
37 18 0
38 19 0
39 20 0
40 21 0
41 22 0
42 23 0
43 24 0
44 25 0
45 26 0
46 27 0
47 28 0
2 46 47 16001 38
0 18 0
2 20 0
3 21 0
4 22 0
5 24 0
6 25 0
7 26 0
8 27 0
9 28 0
10 29 0
11 30 0
13 31 0
14 32 0
16 33 0
17 35 0
18 37 0
19 1 0
19 39 0
20 40 0
21 2 0
21 41 0
22 42 0
24 4 0
25 5 0
26 6 0
27 7 0
29 9 0
30 11 0
31 12 0
32 13 0
33 14 0
34 15 0
35 16 0
36 17 0
37 18 0
38 19 0
39 20 0
40 21 0
2 48 49 16001 40
1 20 0
2 21 0
3 22 0
4 24 0
5 25 0
6 26 0
8 27 0
9 29 0
10 30 0
12 31 0
13 32 0
14 33 0
15 34 0
16 35 0
17 36 0
18 37 0
20 38 0
21 0 0
22 1 0
22 39 0
23 2 0
23 40 0
24 4 0
24 41 0
25 5 0
26 6 0
27 7 0
29 8 0
30 9 0
31 10 0
33 13 0
34 14 0
35 15 0
36 16 0
37 17 0
38 18 0
39 19 0
40 21 0
41 23 0
42 24 0
2 50 51 16001 43
0 22 0
1 23 0
2 24 0
3 25 0
4 26 0
5 27 0
6 29 0
7 30 0
8 31 0
9 33 0
10 34 0
12 36 0
13 37 0
14 38 0
15 39 0
16 40 0
17 41 0
18 42 0
19 43 0
20 0 0
20 44 0
21 1 0
21 45 0
22 2 0
22 46 0
23 4 0
23 48 0
24 5 0
24 49 0
25 7 0
26 9 0
27 10 0
28 12 0
29 13 0
30 14 0
31 15 0
32 16 0
33 17 0
34 18 0
35 19 0
36 20 0
38 24 0
39 25 0
2 52 53 16001 37
0 19 0
1 20 0
2 21 0
3 23 0
6 24 0
7 25 0
9 26 0
10 27 0
11 28 0
13 29 0
14 30 0
16 31 0
17 32 0
19 35 0
20 0 0
20 36 0
21 1 0
21 37 0
22 39 0
23 3 0
24 4 0
25 5 0
26 6 0
27 7 0
29 9 0
30 10 0
31 11 0
32 12 0
33 13 0
34 14 0
35 15 0
36 16 0
37 17 0
38 19 0
39 20 0
40 22 0
41 23 0
2 54 55 16001 58
0 23 0
1 24 0
2 25 0
3 26 0
4 27 0
5 28 0
6 29 0
7 30 0
8 31 0
9 32 0
10 33 0
11 34 0
12 35 0
13 36 0
14 37 0
15 38 0
16 39 0
17 40 0
18 41 0
19 42 0
20 43 0
21 44 0
22 45 0
23 0 0
23 46 0
24 1 0
24 47 0
25 2 0
25 48 0
26 3 0
26 49 0
27 4 0
27 50 0
28 5 0
28 51 0
29 6 0
30 7 0
31 8 0
32 9 0
33 10 0
34 11 0
35 12 0
36 13 0
37 14 0
38 15 0
39 16 0
40 17 0
41 18 0
42 19 0
43 20 0
44 21 0
45 22 0
46 23 0
47 24 0
48 25 0
49 26 0
50 27 0
51 28 0
2 56 57 16001 50
0 18 0
1 19 0
2 20 0
3 21 0
4 22 0
5 23 0
7 24 0
8 25 0
9 26 0
10 27 0
11 28 0
12 29 0
13 30 0
14 31 0
15 32 0
16 33 0
18 34 0
19 35 0
20 36 0
22 37 0
23 0 0
23 38 0
24 1 0
24 39 0
25 2 0
25 40 0
26 3 0
26 41 0
27 4 0
27 42 0
28 5 0
28 43 0
29 6 0
30 7 0
31 8 0
32 9 0
33 10 0
34 11 0
35 12 0
36 13 0
37 14 0
38 15 0
39 16 0
43 17 0
46 18 0
47 19 0
48 20 0
49 21 0
50 22 0
51 23 0
2 58 59 16001 46
0 19 0
1 20 0
2 21 0
3 22 0
4 23 0
5 24 0
7 26 0
8 27 0
9 28 0
10 29 0
11 30 0
13 31 0
15 33 0
16 34 0
17 35 0
18 36 0
19 37 0
21 0 0
21 38 0
22 1 0
22 39 0
23 2 0
23 40 0
24 3 0
24 41 0
25 4 0
25 42 0
26 5 0
26 43 0
27 6 0
28 7 0
29 8 0
30 9 0
34 11 0
35 12 0
36 13 0
37 14 0
39 15 0
40 16 0
41 17 0
42 18 0
43 19 0
44 20 0
45 21 0
46 22 0
47 24 0
2 60 61 16001 54
0 22 0
1 23 0
2 24 0
3 25 0
4 26 0
5 27 0
6 28 0
7 29 0
9 30 0
10 31 0
11 32 0
12 33 0
13 34 0
14 35 0
15 36 0
16 37 0
17 39 0
18 40 0
19 41 0
20 42 0
21 43 0
22 44 0
23 0 0
23 45 0
24 1 0
24 46 0
25 2 0
25 47 0
26 3 0
26 48 0
27 4 0
27 49 0
28 5 0
29 6 0
30 7 0
31 8 0
32 9 0
33 10 0
34 11 0
35 12 0
36 13 0
37 14 0
38 15 0
39 16 0
40 17 0
41 18 0
42 19 0
43 20 0
44 21 0
45 22 0
46 23 0
47 24 0
48 25 0
49 26 0
2 62 63 16001 37
0 19 0
1 20 0
2 22 0
3 23 0
4 24 0
5 25 0
6 26 0
8 27 0
10 28 0
11 29 0
14 30 0
15 32 0
16 33 0
18 0 0
18 34 0
19 1 0
19 35 0
20 3 0
20 37 0
21 4 0
21 38 0
22 5 0
22 39 0
24 6 0
25 7 0
26 8 0
28 11 0
29 12 0
30 13 0
31 14 0
32 15 0
33 17 0
35 18 0
36 19 0
37 20 0
38 21 0
39 22 0
2 64 65 16001 50
0 19 0
1 20 0
2 21 0
3 22 0
4 23 0
5 24 0
6 25 0
7 26 0
9 27 0
10 28 0
11 29 0
12 30 0
13 31 0
14 32 0
15 33 0
16 34 0
18 35 0
19 36 0
21 37 0
22 38 0
23 0 0
23 39 0
24 1 0
24 40 0
25 2 0
25 41 0
26 3 0
26 42 0
27 4 0
27 43 0
28 5 0
28 44 0
29 6 0
30 7 0
31 8 0
32 9 0
33 10 0
34 11 0
36 12 0
37 13 0
38 14 0
39 15 0
40 16 0
41 17 0
44 19 0
45 20 0
46 21 0
47 22 0
48 23 0
49 24 0
2 66 67 16001 49
0 19 0
1 20 0
2 21 0
3 22 0
4 23 0
6 24 0
7 25 0
8 26 0
9 27 0
10 28 0
11 29 0
12 30 0
13 31 0
14 32 0
15 33 0
16 34 0
17 35 0
18 36 0
19 37 0
20 38 0
21 39 0
22 40 0
23 0 0
23 41 0
24 1 0
25 2 0
25 42 0
26 3 0
26 43 0
27 4 0
27 44 0
28 5 0
29 6 0
32 7 0
33 8 0
34 9 0
35 10 0
36 11 0
37 12 0
38 14 0
41 15 0
42 16 0
43 17 0
44 18 0
45 19 0
46 20 0
47 21 0
48 22 0
49 23 0
2 68 69 16001 53
0 23 0
1 24 0
2 25 0
3 26 0
4 27 0
5 28 0
6 29 0
7 31 0
8 32 0
9 33 0
10 34 0
11 35 0
12 36 0
13 37 0
14 38 0
15 39 0
16 40 0
17 41 0
18 42 0
19 43 0
20 44 0
21 45 0
22 0 0
22 46 0
23 1 0
23 47 0
24 2 0
24 48 0
25 3 0
25 49 0
26 5 0
26 51 0
27 6 0
28 7 0
29 8 0
30 9 0
31 10 0
32 11 0
33 12 0
34 13 0
35 14 0
36 15 0
37 16 0
38 17 0
39 18 0
40 21 0
41 22 0
42 23 0
43 24 0
44 25 0
45 26 0
46 27 0
47 28 0
2 70 71 16001 45
0 20 0
1 21 0
3 22 0
7 23 0
8 24 0
9 25 0
10 26 0
11 27 0
12 28 0
13 29 0
14 30 0
15 31 0
16 32 0
17 33 0
18 34 0
20 35 0
21 36 0
22 37 0
23 38 0
24 0 0
24 39 0
25 1 0
25 40 0
26 2 0
27 3 0
27 41 0
28 4 0
29 5 0
30 6 0
31 7 0
32 8 0
33 9 0
34 10 0
35 11 0
36 12 0
37 13 0
40 14 0
41 15 0
42 16 0
43 17 0
44 18 0
45 19 0
46 20 0
47 21 0
49 22 0
2 72 73 16001 44
0 18 0
1 19 0
2 20 0
3 22 0
4 23 0
5 24 0
6 25 0
7 26 0
8 27 0
9 29 0
10 30 0
12 31 0
13 32 0
14 34 0
15 35 0
16 36 0
17 37 0
18 38 0
19 39 0
20 40 0
21 0 0
21 41 0
22 1 0
23 3 0
23 43 0
24 4 0
25 5 0
26 6 0
28 8 0
29 9 0
30 10 0
32 11 0
34 12 0
35 13 0
37 14 0
38 15 0
39 16 0
40 17 0
41 18 0
42 19 0
43 20 0
44 21 0
45 22 0
46 23 0
2 74 75 16001 36
0 16 0
1 18 0
3 20 0
4 21 0
5 23 0
6 24 0
7 25 0
8 26 0
9 27 0
10 28 0
12 29 0
13 31 0
14 32 0
15 33 0
16 34 0
18 0 0
18 35 0
19 1 0
19 36 0
20 3 0
20 38 0
21 4 0
21 39 0
22 5 0
22 40 0
23 6 0
25 8 0
27 10 0
28 11 0
30 12 0
32 13 0
33 14 0
35 17 0
36 18 0
37 19 0
39 20 0
2 76 77 16001 53
0 20 0
1 21 0
2 22 0
3 23 0
4 24 0
5 25 0
6 26 0
7 27 0
8 28 0
9 29 0
10 30 0
11 31 0
12 32 0
13 33 0
14 34 0
15 35 0
16 36 0
17 37 0
18 38 0
19 39 0
20 40 0
21 41 0
22 42 0
23 0 0
23 43 0
24 1 0
24 44 0
25 2 0
25 45 0
26 3 0
27 4 0
27 46 0
28 5 0
28 47 0
29 6 0
30 7 0
31 8 0
32 9 0
34 10 0
36 11 0
37 13 0
39 14 0
40 15 0
41 16 0
42 17 0
43 18 0
44 19 0
45 20 0
46 21 0
47 22 0
48 23 0
49 24 0
50 25 0
2 78 79 16001 50
0 21 0
1 22 0
2 23 0
3 24 0
4 25 0
5 26 0
7 27 0
8 28 0
9 29 0
10 30 0
11 32 0
12 33 0
13 34 0
14 35 0
15 37 0
16 38 0
17 39 0
18 40 0
19 41 0
20 0 0
21 1 0
21 42 0
22 2 0
22 43 0
23 3 0
23 44 0
24 4 0
24 45 0
25 5 0
25 46 0
26 6 0
27 7 0
28 8 0
29 9 0
30 11 0
31 12 0
32 13 0
33 14 0
34 15 0
35 16 0
36 17 0
38 18 0
39 19 0
40 20 0
41 21 0
42 22 0
43 23 0
44 24 0
45 25 0
46 26 0
2 80 81 16001 55
0 23 0
2 24 0
3 25 0
4 26 0
5 27 0
7 28 0
8 29 0
9 30 0
10 31 0
11 32 0
12 33 0
13 34 0
14 35 0
15 36 0
16 37 0
17 38 0
18 39 0
19 40 0
20 41 0
21 42 0
22 43 0
23 0 0
23 44 0
24 1 0
24 45 0
25 2 0
25 46 0
26 3 0
26 47 0
27 4 0
27 48 0
28 5 0
28 49 0
29 6 0
30 7 0
31 8 0
32 9 0
33 10 0
34 11 0
35 12 0
36 13 0
37 14 0
38 15 0
39 16 0
40 17 0
41 18 0
42 19 0
43 20 0
44 21 0
45 22 0
46 23 0
48 24 0
49 25 0
50 26 0
51 27 0
2 82 83 16001 41
0 20 0
2 21 0
3 22 0
9 23 0
11 25 0
12 27 0
13 28 0
14 29 0
16 30 0
17 31 0
18 32 0
19 33 0
20 34 0
21 0 0
21 35 0
22 1 0
22 36 0
23 2 0
23 37 0
24 3 0
25 4 0
25 38 0
26 5 0
26 39 0
27 6 0
29 7 0
30 8 0
31 9 0
32 10 0
33 11 0
35 12 0
36 13 0
37 14 0
38 15 0
40 16 0
41 17 0
42 18 0
43 19 0
44 20 0
46 21 0
47 22 0
2 84 85 16001 42
0 20 0
1 22 0
2 24 0
3 25 0
4 26 0
5 27 0
6 29 0
7 30 0
9 31 0
10 33 0
11 34 0
12 35 0
13 36 0
14 37 0
15 38 0
16 39 0
17 40 0
18 0 0
18 41 0
19 1 0
19 42 0
20 3 0
20 44 0
21 45 0
22 4 0
22 46 0
24 5 0
25 6 0
27 7 0
28 8 0
29 9 0
30 12 0
31 14 0
32 15 0
33 16 0
34 17 0
35 18 0
36 19 0
37 21 0
38 22 0
39 24 0
40 25 0
2 86 87 16001 47
0 20 0
1 21 0
2 22 0
4 23 0
5 24 0
6 25 0
7 26 0
9 27 0
10 28 0
11 29 0
12 30 0
13 31 0
15 32 0
16 33 0
17 34 0
18 35 0
19 36 0
20 37 0
23 0 0
23 38 0
24 39 0
25 40 0
26 1 0
26 41 0
27 2 0
27 42 0
28 3 0
28 43 0
30 4 0
31 5 0
32 6 0
33 7 0
34 8 0
35 9 0
36 10 0
37 11 0
38 12 0
39 15 0
40 16 0
41 17 0
42 18 0
43 19 0
44 20 0
45 21 0
46 22 0
48 23 0
49 24 0
2 88 89 16001 47
0 19 0
1 20 0
2 21 0
3 22 0
4 23 0
5 24 0
6 25 0
7 26 0
8 27 0
9 28 0
11 30 0
13 31 0
16 32 0
17 33 0
18 34 0
19 35 0
20 36 0
21 37 0
22 38 0
23 0 0
23 39 0
24 40 0
25 1 0
26 2 0
26 41 0
27 3 0
29 4 0
30 5 0
31 6 0
32 7 0
33 8 0
34 9 0
35 10 0
37 11 0
38 12 0
39 13 0
40 14 0
41 15 0
42 16 0
43 17 0
44 18 0
45 19 0
46 20 0
47 21 0
48 22 0
49 23 0
50 24 0
2 90 91 16001 49
0 23 0
1 24 0
2 25 0
3 26 0
4 27 0
5 28 0
6 29 0
7 30 0
8 31 0
9 32 0
10 33 0
11 36 0
12 37 0
13 38 0
14 39 0
15 40 0
16 41 0
17 43 0
18 44 0
19 45 0
20 0 0
20 46 0
21 1 0
21 47 0
22 2 0
22 48 0
23 4 0
23 50 0
24 5 0
24 51 0
25 6 0
26 7 0
27 8 0
28 9 0
29 10 0
30 11 0
31 12 0
32 14 0
33 15 0
34 16 0
35 17 0
36 20 0
37 21 0
38 22 0
39 23 0
40 24 0
41 25 0
42 27 0
43 28 0
2 92 93 16001 50
0 22 0
1 23 0
2 24 0
3 25 0
4 26 0
5 27 0
6 28 0
7 29 0
8 30 0
9 31 0
10 32 0
11 33 0
12 34 0
13 36 0
14 37 0
15 38 0
16 39 0
17 40 0
18 41 0
19 42 0
20 43 0
21 44 0
22 0 0
22 45 0
23 1 0
23 46 0
24 2 0
24 47 0
25 48 0
26 3 0
26 49 0
27 4 0
27 50 0
28 5 0
29 6 0
30 7 0
31 10 0
32 13 0
33 14 0
34 16 0
35 17 0
36 18 0
37 19 0
38 20 0
39 21 0
40 22 0
41 23 0
42 25 0
43 26 0
44 27 0
2 94 95 16001 41
1 18 0
2 19 0
5 20 0
6 21 0
8 22 0
9 23 0
10 24 0
11 25 0
12 26 0
13 27 0
15 28 0
16 29 0
18 30 0
19 31 0
20 32 0
21 33 0
22 0 0
22 35 0
23 36 0
24 37 0
25 1 0
25 38 0
26 39 0
27 2 0
27 40 0
28 3 0
30 4 0
31 5 0
32 7 0
33 8 0
34 9 0
35 11 0
36 12 0
37 13 0
38 14 0
39 15 0
40 16 0
41 17 0
44 18 0
45 19 0
48 20 0
2 96 97 16001 41
2 19 0
4 20 0
5 21 0
7 22 0
10 23 0
11 24 0
12 25 0
13 26 0
15 27 0
16 28 0
17 29 0
18 30 0
20 31 0
21 32 0
22 0 0
22 34 0
23 1 0
23 35 0
24 2 0
24 36 0
25 3 0
25 37 0
26 4 0
26 38 0
27 5 0
27 39 0
28 6 0
29 7 0
30 8 0
31 9 0
34 10 0
35 11 0
36 12 0
37 13 0
38 14 0
39 15 0
40 16 0
41 17 0
45 19 0
47 20 0
48 21 0
2 98 99 16001 50
0 21 0
1 22 0
2 23 0
3 24 0
5 25 0
6 26 0
8 27 0
9 28 0
10 29 0
11 30 0
12 31 0
13 32 0
14 34 0
15 35 0
16 36 0
17 37 0
18 38 0
19 39 0
21 40 0
22 0 0
22 41 0
23 1 0
23 42 0
24 2 0
24 43 0
25 3 0
25 44 0
26 4 0
26 45 0
27 5 0
27 46 0
28 6 0
29 7 0
30 8 0
31 9 0
32 10 0
34 11 0
35 12 0
36 13 0
37 14 0
38 15 0
39 16 0
40 17 0
41 18 0
42 19 0
43 20 0
45 21 0
46 23 0
47 24 0
49 25 0
2 0 90 16001 0
2 2 56 16001 0
2 2 14 16001 0
2 2 22 16001 0
2 2 92 16001 0
2 2 26 16001 0
2 2 30 16001 0
2 4 32 16001 0
2 4 68 16001 0
2 6 68 16001 0
2 6 82 16001 0
2 6 26 16001 0
2 10 44 16001 0
2 12 52 16001 0
2 12 62 16001 0
2 14 60 16001 0
2 16 64 16001 0
2 18 80 16001 0
2 20 32 16001 0
2 20 52 16001 0
2 24 88 16001 0
2 24 52 16001 0
2 24 64 16001 0
2 28 34 16001 0
2 28 48 16001 0
2 28 80 16001 0
2 30 96 16001 0
2 30 80 16001 0
2 30 58 16001 0
2 34 42 16001 0
2 34 80 16001 0
2 36 86 16001 0
2 36 54 16001 0
2 36 40 16001 0
2 40 50 16001 0
2 42 48 16001 0
2 42 90 16001 0
2 44 48 16001 0
2 46 60 16001 0
2 48 80 16001 0
2 54 78 16001 0
2 62 96 16001 0
2 66 70 16001 0
2 72 80 16001 0
2 74 86 16001 0
2 74 78 16001 0
2 78 98 16001 0
2 80 90 16001 0
2 86 94 16001 0
2 88 94 16001 0
2 90 96 16001 0
2 0 91 16001 0
2 2 57 16001 0
2 2 15 16001 0
2 2 23 16001 0
2 2 93 16001 0
2 2 27 16001 0
2 2 31 16001 0
2 4 33 16001 0
2 4 69 16001 0
2 6 69 16001 0
2 6 83 16001 0
2 6 27 16001 0
2 10 45 16001 0
2 12 53 16001 0
2 12 63 16001 0
2 14 61 16001 0
2 16 65 16001 0
2 18 81 16001 0
2 20 33 16001 0
2 20 53 16001 0
2 24 89 16001 0
2 24 53 16001 0
2 24 65 16001 0
2 28 35 16001 0
2 28 49 16001 0
2 28 81 16001 0
2 30 97 16001 0
2 30 81 16001 0
2 30 59 16001 0
2 34 43 16001 0
2 34 81 16001 0
2 36 87 16001 0
2 36 55 16001 0
2 36 41 16001 0
2 40 51 16001 0
2 42 49 16001 0
2 42 91 16001 0
2 44 49 16001 0
2 46 61 16001 0
2 48 81 16001 0
2 54 79 16001 0
2 62 97 16001 0
2 66 71 16001 0
2 72 81 16001 0
2 74 87 16001 0
2 74 79 16001 0
2 78 99 16001 0
2 80 91 16001 0
2 86 95 16001 0
2 88 95 16001 0
2 90 97 16001 0
2 1 90 16001 0
2 3 56 16001 0
2 3 14 16001 0
2 3 22 16001 0
2 3 92 16001 0
2 3 26 16001 0
2 3 30 16001 0
2 5 32 16001 0
2 5 68 16001 0
2 7 68 16001 0
2 7 82 16001 0
2 7 26 16001 0
2 11 44 16001 0
2 13 52 16001 0
2 13 62 16001 0
2 15 60 16001 0
2 17 64 16001 0
2 19 80 16001 0
2 21 32 16001 0
2 21 52 16001 0
2 25 88 16001 0
2 25 52 16001 0
2 25 64 16001 0
2 29 34 16001 0
2 29 48 16001 0
2 29 80 16001 0
2 31 96 16001 0
2 31 80 16001 0
2 31 58 16001 0
2 35 42 16001 0
2 35 80 16001 0
2 37 86 16001 0
2 37 54 16001 0
2 37 40 16001 0
2 41 50 16001 0
2 43 48 16001 0
2 43 90 16001 0
2 45 48 16001 0
2 47 60 16001 0
2 49 80 16001 0
2 55 78 16001 0
2 63 96 16001 0
2 67 70 16001 0
2 73 80 16001 0
2 75 86 16001 0
2 75 78 16001 0
2 79 98 16001 0
2 81 90 16001 0
2 87 94 16001 0
2 89 94 16001 0
2 91 96 16001 0
2 1 91 16001 0
2 3 57 16001 0
2 3 15 16001 0
2 3 23 16001 0
2 3 93 16001 0
2 3 27 16001 0
2 3 31 16001 0
2 5 33 16001 0
2 5 69 16001 0
2 7 69 16001 0
2 7 83 16001 0
2 7 27 16001 0
2 11 45 16001 0
2 13 53 16001 0
2 13 63 16001 0
2 15 61 16001 0
2 17 65 16001 0
2 19 81 16001 0
2 21 33 16001 0
2 21 53 16001 0
2 25 89 16001 0
2 25 53 16001 0
2 25 65 16001 0
2 29 35 16001 0
2 29 49 16001 0
2 29 81 16001 0
2 31 97 16001 0
2 31 81 16001 0
2 31 59 16001 0
2 35 43 16001 0
2 35 81 16001 0
2 37 87 16001 0
2 37 55 16001 0
2 37 41 16001 0
2 41 51 16001 0
2 43 49 16001 0
2 43 91 16001 0
2 45 49 16001 0
2 47 61 16001 0
2 49 81 16001 0
2 55 79 16001 0
2 63 97 16001 0
2 67 71 16001 0
2 73 81 16001 0
2 75 87 16001 0
2 75 79 16001 0
2 79 99 16001 0
2 81 91 16001 0
2 87 95 16001 0
2 89 95 16001 0
2 91 97 16001 0
2 8 69 1000 41
0 1 0
1 2 0
2 3 0
3 4 0
4 5 0
5 6 0
6 8 0
7 9 0
8 10 0
9 11 0
10 12 0
11 14 0
12 15 0
13 16 0
14 17 0
15 18 0
16 19 0
17 20 0
18 22 0
19 23 0
20 24 0
21 25 0
22 26 0
23 27 0
24 28 0
25 29 0
26 32 0
27 34 0
28 35 0
29 36 0
30 37 0
31 39 0
32 40 0
33 42 0
34 43 0
35 44 0
36 45 0
37 46 0
38 47 0
39 48 0
40 51 0
2 20 69 1000 47
0 0 0
1 1 0
2 2 0
3 3 0
4 4 0
5 5 0
6 6 0
7 7 0
8 8 0
9 9 0
10 10 0
11 11 0
12 12 0
13 13 0
14 14 0
15 15 0
16 16 0
17 18 0
18 19 0
19 20 0
20 21 0
21 22 0
22 23 0
23 24 0
24 25 0
25 26 0
26 27 0
27 28 0
28 29 0
29 30 0
30 31 0
31 32 0
32 33 0
33 34 0
34 35 0
35 38 0
36 39 0
37 40 0
38 41 0
39 42 0
40 43 0
41 44 0
42 45 0
43 46 0
44 47 0
45 49 0
46 51 0
2 38 75 1000 31
0 1 0
1 4 0
2 5 0
3 6 0
6 7 0
7 8 0
9 11 0
11 12 0
13 13 0
14 14 0
15 15 0
17 16 0
18 17 0
19 18 0
21 20 0
22 22 0
23 23 0
24 24 0
25 25 0
27 26 0
28 27 0
29 28 0
31 29 0
32 30 0
33 33 0
34 34 0
36 35 0
37 37 0
38 38 0
39 39 0
40 40 0
2 44 91 1000 48
0 0 0
1 2 0
2 3 0
3 4 0
4 5 0
5 6 0
6 7 0
7 8 0
8 9 0
9 10 0
10 11 0
11 13 0
12 15 0
13 16 0
14 17 0
15 18 0
16 20 0
17 21 0
18 22 0
19 23 0
20 24 0
21 25 0
22 26 0
23 27 0
24 28 0
25 29 0
26 30 0
27 31 0
28 32 0
29 33 0
30 34 0
31 35 0
32 36 0
33 37 0
34 38 0
35 39 0
36 40 0
37 41 0
38 42 0
39 43 0
40 44 0
41 45 0
42 46 0
43 47 0
44 48 0
45 49 0
46 50 0
47 51 0
2 60 85 1000 45
0 0 0
1 1 0
2 2 0
3 3 0
5 4 0
7 5 0
8 6 0
10 7 0
11 8 0
12 9 0
13 10 0
14 11 0
15 12 0
16 13 0
17 15 0
18 16 0
19 17 0
20 18 0
21 19 0
22 20 0
23 21 0
24 22 0
25 23 0
26 24 0
27 25 0
28 26 0
29 27 0
30 28 0
31 29 0
32 30 0
34 31 0
35 32 0
36 33 0
37 34 0
38 35 0
40 36 0
41 37 0
42 38 0
43 39 0
44 40 0
45 41 0
46 42 0
47 43 0
48 44 0
49 45 0
2 66 77 1000 47
0 0 0
1 1 0
2 2 0
3 3 0
4 4 0
5 5 0
6 6 0
7 7 0
8 8 0
9 9 0
11 10 0
13 11 0
14 12 0
15 13 0
17 14 0
18 15 0
19 16 0
20 17 0
21 18 0
22 19 0
23 20 0
24 21 0
25 22 0
26 23 0
27 24 0
28 25 0
29 26 0
30 27 0
31 28 0
32 29 0
33 30 0
34 31 0
35 32 0
36 33 0
37 34 0
38 36 0
39 37 0
40 38 0
41 39 0
42 40 0
43 41 0
44 42 0
45 43 0
46 44 0
47 45 0
49 46 0
50 47 0
2 70 77 1000 48
0 0 0
1 1 0
2 2 0
3 3 0
4 4 0
5 5 0
6 6 0
7 7 0
8 8 0
9 9 0
11 10 0
13 11 0
14 12 0
15 13 0
17 14 0
18 15 0
19 16 0
20 17 0
21 18 0
22 19 0
23 20 0
24 21 0
25 22 0
26 23 0
27 24 0
28 25 0
29 26 0
30 27 0
31 28 0
32 29 0
33 30 0
34 31 0
35 32 0
36 33 0
37 34 0
38 35 0
39 36 0
40 37 0
41 38 0
42 39 0
43 40 0
44 41 0
45 42 0
46 43 0
47 44 0
48 45 0
50 46 0
51 47 0
2 76 85 1000 46
0 0 0
1 1 0
2 2 0
3 3 0
5 4 0
7 5 0
8 6 0
10 7 0
11 8 0
12 9 0
13 10 0
14 11 0
15 12 0
16 13 0
17 14 0
18 15 0
19 16 0
20 17 0
21 18 0
22 19 0
23 20 0
24 21 0
25 22 0
26 23 0
27 24 0
28 25 0
29 26 0
30 27 0
31 28 0
32 29 0
33 30 0
35 31 0
36 32 0
37 34 0
38 35 0
40 36 0
41 37 0
42 38 0
43 39 0
44 40 0
45 41 0
46 42 0
47 43 0
48 44 0
49 45 0
50 46 0
2 9 68 1000 47
0 0 0
1 1 0
2 2 0
3 3 0
4 4 0
5 5 0
6 6 0
8 7 0
9 8 0
10 9 0
11 10 0
12 11 0
13 12 0
14 13 0
15 14 0
16 15 0
17 16 0
18 17 0
19 18 0
20 20 0
21 21 0
22 22 0
23 23 0
24 24 0
25 25 0
27 26 0
28 27 0
29 28 0
30 29 0
31 30 0
32 31 0
33 32 0
34 33 0
35 34 0
36 35 0
37 36 0
38 37 0
39 38 0
40 39 0
43 40 0
44 41 0
45 42 0
46 43 0
47 44 0
48 45 0
49 46 0
50 47 0
2 21 68 1000 38
0 0 0
1 1 0
2 2 0
3 3 0
4 4 0
5 5 0
7 7 0
8 8 0
9 9 0
10 11 0
11 12 0
12 13 0
13 14 0
14 15 0
15 16 0
16 17 0
17 18 0
18 19 0
19 20 0
20 21 0
21 22 0
22 25 0
24 26 0
25 27 0
26 29 0
27 30 0
28 31 0
29 33 0
30 34 0
31 35 0
32 37 0
33 38 0
35 42 0
36 43 0
37 44 0
38 45 0
39 46 0
40 47 0
2 39 74 1000 37
0 0 0
2 1 0
4 2 0
5 3 0
7 5 0
8 6 0
9 7 0
11 8 0
12 9 0
13 10 0
14 11 0
15 12 0
17 13 0
18 14 0
19 15 0
20 16 0
21 17 0
22 18 0
23 19 0
25 20 0
26 21 0
27 22 0
29 24 0
31 25 0
32 26 0
34 27 0
35 28 0
36 29 0
37 30 0
38 31 0
39 32 0
42 34 0
44 35 0
45 36 0
46 37 0
47 38 0
48 39 0
2 45 90 1000 43
0 0 0
1 1 0
2 2 0
3 3 0
4 4 0
5 5 0
6 6 0
7 7 0
8 8 0
9 9 0
10 10 0
13 11 0
14 12 0
15 13 0
16 14 0
17 15 0
18 16 0
20 17 0
21 18 0
22 19 0
23 20 0
24 21 0
25 22 0
27 23 0
28 24 0
29 25 0
30 26 0
31 27 0
32 28 0
33 29 0
34 30 0
36 32 0
37 33 0
38 34 0
39 35 0
42 36 0
43 37 0
44 38 0
45 39 0
46 40 0
47 41 0
49 42 0
50 43 0
2 61 84 1000 39
1 1 0
3 2 0
4 3 0
5 4 0
6 5 0
8 6 0
9 7 0
10 8 0
11 9 0
13 10 0
14 11 0
15 12 0
17 13 0
18 14 0
19 15 0
20 16 0
21 17 0
22 18 0
23 19 0
25 20 0
26 21 0
27 22 0
28 23 0
29 24 0
30 26 0
31 27 0
32 28 0
33 29 0
36 30 0
38 31 0
39 32 0
40 33 0
41 34 0
42 35 0
43 36 0
45 37 0
46 38 0
48 39 0
49 40 0
2 67 76 1000 44
0 0 0
1 1 0
2 2 0
3 3 0
4 4 0
5 5 0
6 6 0
7 9 0
8 10 0
9 11 0
10 12 0
11 13 0
12 14 0
13 15 0
14 16 0
15 19 0
16 20 0
17 21 0
18 22 0
19 23 0
20 24 0
21 25 0
22 26 0
23 27 0
24 29 0
25 30 0
26 31 0
27 32 0
28 33 0
29 34 0
30 35 0
31 36 0
33 37 0
34 38 0
35 39 0
36 40 0
37 41 0
38 42 0
39 43 0
40 44 0
41 45 0
42 47 0
43 48 0
44 49 0
2 71 76 1000 41
0 1 0
1 2 0
2 3 0
3 4 0
4 5 0
5 6 0
6 7 0
7 8 0
8 9 0
9 10 0
10 11 0
11 12 0
12 13 0
13 14 0
14 17 0
15 18 0
16 19 0
17 20 0
18 21 0
19 22 0
20 23 0
21 24 0
22 26 0
23 30 0
24 31 0
25 32 0
26 33 0
27 34 0
28 35 0
29 36 0
31 37 0
32 38 0
33 39 0
34 40 0
35 42 0
36 43 0
37 44 0
38 45 0
39 46 0
40 47 0
41 49 0
2 77 84 1000 38
0 0 0
2 1 0
4 2 0
5 3 0
6 4 0
7 5 0
9 6 0
10 8 0
12 10 0
13 11 0
15 13 0
16 14 0
17 15 0
18 16 0
19 17 0
20 18 0
21 19 0
23 20 0
24 21 0
25 22 0
26 23 0
27 24 0
28 25 0
29 26 0
30 27 0
31 28 0
32 29 0
35 30 0
37 31 0
38 32 0
39 33 0
40 34 0
41 35 0
42 36 0
44 37 0
45 38 0
46 39 0
47 40 0
